50
15333

741 557
5 253
399 779
841 143
5 349
433 462
850 891
68 17
881 582
159 214
414 437
626 127
431 328
762 852
418 195
50 427
463 867
72 408
250 151
90 405
498 489
33 532
663 798
749 79
385 543
890 767
888 205
565 69
460 84
984 301
564 292
865 945
936 974
542 360
406 834
407 392
616 4
217 708
312 763
390 231
126 564
77 760
58 100
963 931
442 939
709 745
869 272
150 665
417 413
956 990
